p cnf 236 635
-236 -235 -229 0
236 235 0
236 229 0
-235 234 233 20 0
235 -234 0
235 -233 0
235 -20 0
-234 -25 -24 0
234 25 0
234 24 0
-233 -232 -231 0
233 232 0
233 231 0
23 232 0
-23 -232 0
231 230 21 0
-231 -230 0
-231 -21 0
22 230 0
-22 -230 0
-229 228 225 0
229 -228 0
229 -225 0
-228 -227 -226 0
228 227 0
228 226 0
25 227 0
-25 -227 0
226 230 232 0
-226 -230 0
-226 -232 0
-225 -24 -21 0
225 24 0
225 21 0
-224 -223 -220 0
224 223 0
224 220 0
-223 233 222 0
223 -233 0
223 -222 0
-222 -234 -221 0
222 234 0
222 221 0
20 221 0
-20 -221 0
220 219 215 0
-220 -219 0
-220 -215 0
219 23 218 0
-219 -23 0
-219 -218 0
-218 -217 -216 0
218 217 0
218 216 0
217 25 20 0
-217 -25 0
-217 -20 0
216 24 21 0
-216 -24 0
-216 -21 0
215 -226 -214 0
-215 226 0
-215 214 0
214 234 213 0
-214 -234 0
-214 -213 0
21 213 0
-21 -213 0
-212 -211 -210 -202 -201 0
212 211 0
212 210 0
212 202 0
212 201 0
219 211 0
-219 -211 0
210 209 204 226 0
-210 -209 0
-210 -204 0
-210 -226 0
209 -20 -208 0
-209 20 0
-209 208 0
208 207 205 0
-208 -207 0
-208 -205 0
206 207 0
-206 -207 0
206 22 24 0
-206 -22 0
-206 -24 0
-205 -21 -227 0
205 21 0
205 227 0
204 -221 -203 0
-204 221 0
-204 203 0
203 230 24 0
-203 -230 0
-203 -24 0
231 202 0
-231 -202 0
-201 -22 -200 0
201 22 0
201 200 0
200 217 199 0
-200 -217 0
-200 -199 0
24 199 0
-24 -199 0
-198 -197 -192 -189 0
198 197 0
198 192 0
198 189 0
-197 196 193 0
197 -196 0
197 -193 0
-196 -195 -232 0
196 195 0
196 232 0
195 216 194 0
-195 -216 0
-195 -194 0
225 194 0
-225 -194 0
-193 -221 -22 0
193 221 0
193 22 0
-192 227 191 0
192 -227 0
192 -191 0
-191 -231 -190 0
191 231 0
191 190 0
190 20 24 0
-190 -20 0
-190 -24 0
189 188 186 0
-189 -188 0
-189 -186 0
188 22 187 0
-188 -22 0
-188 -187 0
187 -218 -232 0
-187 218 0
-187 232 0
186 -20 -214 0
-186 20 0
-186 214 0
-185 -184 -183 -179 0
185 184 0
185 183 0
185 179 0
-184 199 230 0
184 -199 0
184 -230 0
183 182 25 0
-183 -182 0
-183 -25 0
182 181 21 0
-182 -181 0
-182 -21 0
180 181 0
-180 -181 0
-180 -221 -232 0
180 221 0
180 232 0
179 178 175 0
-179 -178 0
-179 -175 0
-178 -177 -176 0
178 177 0
178 176 0
-177 23 225 0
177 -23 0
177 -225 0
-176 -190 -21 0
176 190 0
176 21 0
175 -213 -206 0
-175 213 0
-175 206 0
-174 -173 -169 0
174 173 0
174 169 0
-173 22 172 0
173 -22 0
173 -172 0
171 172 0
-171 -172 0
171 170 213 0
-171 -170 0
-171 -213 0
-170 -25 -232 0
170 25 0
170 232 0
169 168 167 0
-169 -168 0
-169 -167 0
168 221 227 213 0
-168 -221 0
-168 -227 0
-168 -213 0
167 -166 -164 0
-167 166 0
-167 164 0
-166 -165 -221 0
166 165 0
166 221 0
-165 232 227 0
165 -232 0
165 -227 0
164 202 199 0
-164 -202 0
-164 -199 0
-163 -162 -159 -156 -155 0
163 162 0
163 159 0
163 156 0
163 155 0
-162 -161 -199 0
162 161 0
162 199 0
-161 171 160 0
161 -171 0
161 -160 0
228 160 0
-228 -160 0
-159 -221 -158 0
159 221 0
159 158 0
157 158 0
-157 -158 0
-157 -230 -25 0
157 230 0
157 25 0
-156 -25 -182 0
156 25 0
156 182 0
-155 -154 -24 0
155 154 0
155 24 0
-154 153 152 0
154 -153 0
154 -152 0
233 153 0
-233 -153 0
152 230 221 0
-152 -230 0
-152 -221 0
-151 -150 -144 -134 -130 0
151 150 0
151 144 0
151 134 0
151 130 0
-150 -149 -24 0
150 149 0
150 24 0
-149 160 148 0
149 -160 0
149 -148 0
148 147 146 0
-148 -147 0
-148 -146 0
-147 -217 -22 0
147 217 0
147 22 0
146 -145 -18 0
-146 145 0
-146 18 0
19 145 0
-19 -145 0
144 143 142 138 0
-144 -143 0
-144 -142 0
-144 -138 0
143 -195 -152 0
-143 195 0
-143 152 0
142 -230 -141 0
-142 230 0
-142 141 0
-141 -140 -139 0
141 140 0
141 139 0
-140 232 213 0
140 -232 0
140 -213 0
-139 18 176 0
139 -18 0
139 -176 0
-138 -137 -136 0
138 137 0
138 136 0
-137 23 191 0
137 -23 0
137 -191 0
-136 -135 -21 0
136 135 0
136 21 0
135 24 227 0
-135 -24 0
-135 -227 0
134 171 133 0
-134 -171 0
-134 -133 0
133 -132 -131 0
-133 132 0
-133 131 0
132 225 22 0
-132 -225 0
-132 -22 0
-131 -17 -221 0
131 17 0
131 221 0
-130 -164 -170 0
130 164 0
130 170 0
-129 -128 -125 -124 0
129 128 0
129 125 0
129 124 0
-128 22 127 0
128 -22 0
128 -127 0
127 200 126 0
-127 -200 0
-127 -126 0
196 126 0
-196 -126 0
-125 180 157 0
125 -180 0
125 -157 0
124 123 122 120 0
-124 -123 0
-124 -122 0
-124 -120 0
123 -199 -226 0
-123 199 0
-123 226 0
122 -232 -121 0
-122 232 0
-122 121 0
121 193 225 0
-121 -193 0
-121 -225 0
-120 -119 -172 0
120 119 0
120 172 0
-119 181 202 0
119 -181 0
119 -202 0
-118 -117 -113 -98 0
118 117 0
118 113 0
118 98 0
-117 116 115 0
117 -116 0
117 -115 0
-116 -25 -132 0
116 25 0
116 132 0
115 16 114 0
-115 -16 0
-115 -114 0
15 114 0
-15 -114 0
113 112 106 99 0
-113 -112 0
-113 -106 0
-113 -99 0
-112 -111 -109 -107 0
112 111 0
112 109 0
112 107 0
-111 17 110 0
111 -17 0
111 -110 0
-110 -132 -227 0
110 132 0
110 227 0
-109 181 108 0
109 -181 0
109 -108 0
-108 -230 -24 0
108 230 0
108 24 0
-107 -20 -231 -234 0
107 20 0
107 231 0
107 234 0
105 106 0
-105 -106 0
-105 -104 -102 0
105 104 0
105 102 0
-104 14 103 0
104 -14 0
104 -103 0
13 103 0
-13 -103 0
102 234 101 0
-102 -234 0
-102 -101 0
100 101 0
-100 -101 0
100 22 21 0
-100 -22 0
-100 -21 0
99 -226 -135 0
-99 226 0
-99 135 0
98 97 88 0
-98 -97 0
-98 -88 0
-97 -96 -95 -91 0
97 96 0
97 95 0
97 91 0
-96 230 172 0
96 -230 0
96 -172 0
95 94 92 0
-95 -94 0
-95 -92 0
94 -121 -93 -227 0
-94 121 0
-94 93 0
-94 227 0
-93 -18 -19 0
93 18 0
93 19 0
92 -21 -160 0
-92 21 0
-92 160 0
-91 -90 -230 0
91 90 0
91 230 0
-90 89 219 0
90 -89 0
90 -219 0
89 205 221 0
-89 -205 0
-89 -221 0
88 -87 -86 0
-88 87 0
-88 86 0
87 25 21 108 0
-87 -25 0
-87 -21 0
-87 -108 0
-86 -85 -11 0
86 85 0
86 11 0
12 85 0
-12 -85 0
-84 -83 -80 0
84 83 0
84 80 0
-83 221 82 0
83 -221 0
83 -82 0
82 100 81 0
-82 -100 0
-82 -81 0
81 -108 -25 0
-81 108 0
-81 25 0
80 79 78 0
-80 -79 0
-80 -78 0
79 -222 -22 -21 0
-79 222 0
-79 22 0
-79 21 0
78 -227 -77 0
-78 227 0
-78 77 0
76 77 0
-76 -77 0
76 75 74 0
-76 -75 0
-76 -74 0
75 108 221 0
-75 -108 0
-75 -221 0
74 -153 -199 0
-74 153 0
-74 199 0
-73 -72 -70 -68 0
73 72 0
73 70 0
73 68 0
71 72 0
-71 -72 0
71 195 23 147 0
-71 -195 0
-71 -23 0
-71 -147 0
-70 -69 -89 -203 0
70 69 0
70 89 0
70 203 0
10 69 0
-10 -69 0
68 67 37 0
-68 -67 0
-68 -37 0
-67 -66 -62 -49 0
67 66 0
67 62 0
67 49 0
-66 110 65 0
66 -110 0
66 -65 0
65 64 63 0
-65 -64 0
-65 -63 0
64 -9 -20 0
-64 9 0
-64 20 0
63 -8 -23 0
-63 8 0
-63 23 0
62 61 55 0
-62 -61 0
-62 -55 0
61 -60 -59 0
-61 60 0
-61 59 0
60 207 20 170 0
-60 -207 0
-60 -20 0
-60 -170 0
58 59 0
-58 -59 0
58 57 56 0
-58 -57 0
-58 -56 0
57 -7 -213 0
-57 7 0
-57 213 0
56 -6 -21 0
-56 6 0
-56 21 0
55 -230 -54 0
-55 230 0
-55 54 0
53 54 0
-53 -54 0
53 52 50 0
-53 -52 0
-53 -50 0
52 -20 -5 -51 0
-52 20 0
-52 5 0
-52 51 0
136 51 0
-136 -51 0
50 -4 -216 -166 0
-50 4 0
-50 216 0
-50 166 0
49 48 43 0
-49 -48 0
-49 -43 0
48 47 46 0
-48 -47 0
-48 -46 0
11 47 0
-11 -47 0
46 -45 -44 0
-46 45 0
-46 44 0
-45 -87 -232 0
45 87 0
45 232 0
-44 -75 -213 0
44 75 0
44 213 0
43 -181 -42 0
-43 181 0
-43 42 0
-42 -41 -39 -38 0
42 41 0
42 39 0
42 38 0
-41 40 103 0
41 -40 0
41 -103 0
102 40 0
-102 -40 0
-39 116 114 0
39 -116 0
39 -114 0
-38 -3 -18 -208 0
38 3 0
38 18 0
38 208 0
37 -23 -36 0
-37 23 0
-37 36 0
-36 -35 -32 -31 -29 0
36 35 0
36 32 0
36 31 0
36 29 0
35 34 33 0
-35 -34 0
-35 -33 0
34 -208 -4 0
-34 208 0
-34 4 0
33 -102 -2 0
-33 102 0
-33 2 0
-32 -227 -1 -100 0
32 227 0
32 1 0
32 100 0
-31 -30 -9 0
31 30 0
31 9 0
116 30 0
-116 -30 0
-29 -28 -51 0
29 28 0
29 51 0
-28 1 22 0
28 -1 0
28 -22 0
27 206 26 0
-27 -206 0
-27 -26 0
168 26 0
-168 -26 0